p cnf 15 39
1 2 3 0
-1 -2 0
-1 -3 0
-1 -4 0
-1 -7 0
-2 -3 0
-2 -5 0
-2 -8 0
-3 -6 0
-3 -9 0
4 5 6 0
-4 -5 0
-4 -6 0
-5 -6 0
-4 -7 0
-5 -8 0
-6 -9 0
7 8 9 0
-7 -8 0
-7 -9 0
-8 -9 0
-1 -5 10 0
-2 -6 10 0
-2 -9 11 0
-1 -8 11 0
-4 -2 12 0
-5 -3 12 0
-4 -8 13 0
-5 -9 13 0
-7 -2 14 0
-7 -5 15 0
-8 -3 14 0
-8 -6 15 0
-10 0
-11 0
12 0
-13 0
14 0
15 0